instances/shortest_path/discrete_knapsack_uncertainty/nohadani_9_14.lp
\ Model nohadani_9_14
\ LP format - for model browsing. Use MPS format to capture full model detail.
\ Signature: 0x3d742310a829b0f1
Minimize
  33.61547262794322 y[0,1] + 53.15072906367325 y[0,2]
   + 66.007575322837 y[0,3] + 62.3698645180507 y[0,4]
   + 49.64876634922564 y[0,5] + 53.46026561849464 y[0,6]
   + 39.56008088970496 y[0,7] + 66.61080993352356 y[0,8]
   + 33.61547262794322 y[1,0] + 53.15072906367325 y[1,2]
   + 37.69615364994153 y[1,3] + 27.65863337187866 y[1,5]
   + 70.22819946431775 y[1,6] + 67.26812023536856 y[1,7]
   + 35.22782990761707 y[1,8] + 53.15072906367325 y[2,0]
   + 53.15072906367325 y[2,1] + 49.8196748283246 y[2,3]
   + 30.4138126514911 y[2,4] + 34.92849839314596 y[2,5]
   + 30.87069808086626 y[2,6] + 49.09175083453431 y[2,7]
   + 57.9827560572969 y[2,8] + 66.007575322837 y[3,0]
   + 37.69615364994153 y[3,1] + 49.8196748283246 y[3,2]
   + 18.38477631085023 y[3,5] + 10 y[3,8] + 62.3698645180507 y[4,0]
   + 30.4138126514911 y[4,2] + 64.07027391856539 y[4,5] + 10 y[4,6]
   + 36.12478373637688 y[4,7] + 49.64876634922564 y[5,0]
   + 27.65863337187866 y[5,1] + 34.92849839314596 y[5,2]
   + 18.38477631085023 y[5,3] + 64.07027391856539 y[5,4]
   + 61.55485358604957 y[5,6] + 69.35416353759881 y[5,7]
   + 24.04163056034261 y[5,8] + 53.46026561849464 y[6,0]
   + 70.22819946431775 y[6,1] + 30.87069808086626 y[6,2] + 10 y[6,4]
   + 61.55485358604957 y[6,5] + 26.40075756488817 y[6,7]
   + 39.56008088970496 y[7,0] + 67.26812023536856 y[7,1]
   + 49.09175083453431 y[7,2] + 36.12478373637688 y[7,4]
   + 69.35416353759881 y[7,5] + 26.40075756488817 y[7,6]
   + 66.61080993352356 y[8,0] + 35.22782990761707 y[8,1]
   + 57.9827560572969 y[8,2] + 10 y[8,3] + 24.04163056034261 y[8,5]
   + x[0,1] + x[0,2] + x[0,3] + x[0,4] + x[0,5] + x[0,6] + x[0,7] + x[0,8]
   + x[1,0] + x[1,2] + x[1,3] + x[1,5] + x[1,6] + x[1,7] + x[1,8] + x[2,0]
   + x[2,1] + x[2,3] + x[2,4] + x[2,5] + x[2,6] + x[2,7] + x[2,8] + x[3,0]
   + x[3,1] + x[3,2] + x[3,5] + x[3,8] + x[4,0] + x[4,2] + x[4,5] + x[4,6]
   + x[4,7] + x[5,0] + x[5,1] + x[5,2] + x[5,3] + x[5,4] + x[5,6] + x[5,7]
   + x[5,8] + x[6,0] + x[6,1] + x[6,2] + x[6,4] + x[6,5] + x[6,7] + x[7,0]
   + x[7,1] + x[7,2] + x[7,4] + x[7,5] + x[7,6] + x[8,0] + x[8,1] + x[8,2]
   + x[8,3] + x[8,5] + 3.361547262794322 r[0,1] + 5.315072906367325 r[0,2]
   + 6.6007575322837 r[0,3] + 6.236986451805071 r[0,4]
   + 4.964876634922565 r[0,5] + 5.346026561849464 r[0,6]
   + 3.956008088970496 r[0,7] + 6.661080993352356 r[0,8]
   + 3.361547262794322 r[1,0] + 5.315072906367325 r[1,2]
   + 3.769615364994153 r[1,3] + 2.765863337187866 r[1,5]
   + 7.022819946431776 r[1,6] + 6.726812023536856 r[1,7]
   + 3.522782990761707 r[1,8] + 5.315072906367325 r[2,0]
   + 5.315072906367325 r[2,1] + 4.98196748283246 r[2,3]
   + 3.04138126514911 r[2,4] + 3.492849839314596 r[2,5]
   + 3.087069808086627 r[2,6] + 4.909175083453431 r[2,7]
   + 5.79827560572969 r[2,8] + 6.6007575322837 r[3,0]
   + 3.769615364994153 r[3,1] + 4.98196748283246 r[3,2]
   + 1.838477631085023 r[3,5] + r[3,8] + 6.236986451805071 r[4,0]
   + 3.04138126514911 r[4,2] + 6.407027391856539 r[4,5] + r[4,6]
   + 3.612478373637689 r[4,7] + 4.964876634922565 r[5,0]
   + 2.765863337187866 r[5,1] + 3.492849839314596 r[5,2]
   + 1.838477631085023 r[5,3] + 6.407027391856539 r[5,4]
   + 6.155485358604958 r[5,6] + 6.935416353759881 r[5,7]
   + 2.404163056034262 r[5,8] + 5.346026561849464 r[6,0]
   + 7.022819946431776 r[6,1] + 3.087069808086627 r[6,2] + r[6,4]
   + 6.155485358604958 r[6,5] + 2.640075756488817 r[6,7]
   + 3.956008088970496 r[7,0] + 6.726812023536856 r[7,1]
   + 4.909175083453431 r[7,2] + 3.612478373637689 r[7,4]
   + 6.935416353759881 r[7,5] + 2.640075756488817 r[7,6]
   + 6.661080993352356 r[8,0] + 3.522782990761707 r[8,1]
   + 5.79827560572969 r[8,2] + r[8,3] + 2.404163056034262 r[8,5]
Subject To
 flow_cons_inner_nodes[0]: - y[0,1] - y[0,2] - y[0,3] - y[0,4] - y[0,5]
   - y[0,6] - y[0,7] - y[0,8] + y[1,0] + y[2,0] + y[3,0] + y[4,0] + y[5,0]
   + y[6,0] + y[7,0] + y[8,0] = 0
 flow_cons_inner_nodes[1]: y[0,1] - y[1,0] - y[1,2] - y[1,3] - y[1,5]
   - y[1,6] - y[1,7] - y[1,8] + y[2,1] + y[3,1] + y[5,1] + y[6,1] + y[7,1]
   + y[8,1] = 0
 flow_cons_inner_nodes[2]: y[0,2] + y[1,2] - y[2,0] - y[2,1] - y[2,3]
   - y[2,4] - y[2,5] - y[2,6] - y[2,7] - y[2,8] + y[3,2] + y[4,2] + y[5,2]
   + y[6,2] + y[7,2] + y[8,2] = 0
 flow_cons_inner_nodes[3]: y[0,3] + y[1,3] + y[2,3] - y[3,0] - y[3,1]
   - y[3,2] - y[3,5] - y[3,8] + y[5,3] + y[8,3] = 0
 flow_cons_inner_nodes[4]: y[0,4] + y[2,4] - y[4,0] - y[4,2] - y[4,5]
   - y[4,6] - y[4,7] + y[5,4] + y[6,4] + y[7,4] = 0
 flow_cons_inner_nodes[5]: y[0,5] + y[1,5] + y[2,5] + y[3,5] + y[4,5]
   - y[5,0] - y[5,1] - y[5,2] - y[5,3] - y[5,4] - y[5,6] - y[5,7] - y[5,8]
   + y[6,5] + y[7,5] + y[8,5] = 0
 flow_cons_inner_nodes[6]: y[0,6] + y[1,6] + y[2,6] + y[4,6] + y[5,6]
   - y[6,0] - y[6,1] - y[6,2] - y[6,4] - y[6,5] - y[6,7] + y[7,6] = 0
 flow_cons_source: - y[0,7] - y[1,7] - y[2,7] - y[4,7] - y[5,7] - y[6,7]
   + y[7,0] + y[7,1] + y[7,2] + y[7,4] + y[7,5] + y[7,6] = 1
 flow_cons_target: y[0,8] + y[1,8] + y[2,8] + y[3,8] + y[5,8] - y[8,0]
   - y[8,1] - y[8,2] - y[8,3] - y[8,5] = 1
 primal_lower: 0.1536467589807632 x[0,1] + 3.863760767105572 x[0,2]
   + 0.5506195457650837 x[0,3] + 3.443368204976302 x[0,4]
   + 2.972717788789608 x[0,5] + 3.025590686786485 x[0,6]
   + 1.624435216669509 x[0,7] + 2.709940549995929 x[0,8]
   + 4.325372587303781 x[1,0] + 4.011420224793169 x[1,2]
   + 1.978841384494584 x[1,3] + 3.106227411195092 x[1,5]
   + 3.752468629064537 x[1,6] + 0.0504022652628039 x[1,7]
   + 1.011242187291216 x[1,8] + 4.186428822877267 x[2,0]
   + 0.5146536938634562 x[2,1] + 2.178052201527986 x[2,3]
   + 4.249442888686308 x[2,4] + 4.162705429183342 x[2,5]
   + 2.186802050644385 x[2,6] + 2.896451365983374 x[2,7]
   + 2.255097775625652 x[2,8] + 0.7397250813562972 x[3,0]
   + 4.286837978289118 x[3,1] + 2.886578492729329 x[3,2]
   + 3.452241200018389 x[3,5] + 4.028468687093187 x[3,8]
   + 1.806230064973208 x[4,0] + 1.764023265472703 x[4,2]
   + 1.394073648666485 x[4,5] + 2.687333417425604 x[4,6]
   + 4.188972242924273 x[4,7] + 1.96985858960291 x[5,0]
   + 1.011942292920353 x[5,1] + 1.331178821437109 x[5,2]
   + 4.059708912034243 x[5,3] + 2.192455844136675 x[5,4]
   + 1.005219859848447 x[5,6] + 3.324430894119137 x[5,7]
   + 4.331454387763816 x[5,8] + 0.4650116817440351 x[6,0]
   + 2.174322165124421 x[6,1] + 1.293604992798856 x[6,2]
   + 1.545733119615186 x[6,4] + 4.172989030573985 x[6,5]
   + 3.086776573126276 x[6,7] + 3.271468917313588 x[7,0]
   + 2.119894207814888 x[7,1] + 0.5758676643175186 x[7,2]
   + 3.863087162744967 x[7,4] + 0.6601897317811466 x[7,5]
   + 4.230898963778509 x[7,6] + 1.704188053314756 x[8,0]
   + 3.954466524383509 x[8,1] + 3.722110751542549 x[8,2]
   + 3.414180889287413 x[8,3] + 1.767887027100739 x[8,5] + 95 u[0,1]
   + 84 u[0,2] + 90 u[0,3] + 63 u[0,4] + 4 u[0,5] + 81 u[0,6] + 33 u[0,7]
   + 47 u[0,8] + 57 u[1,0] + 62 u[1,2] + 71 u[1,3] + 15 u[1,5] + 16 u[1,6]
   + 96 u[1,7] + 68 u[1,8] + 4 u[2,0] + 53 u[2,1] + 88 u[2,3] + 21 u[2,4]
   + 46 u[2,5] + u[2,6] + 3 u[2,7] + 16 u[2,8] + 26 u[3,0] + 84 u[3,1]
   + 16 u[3,2] + 62 u[3,5] + 15 u[3,8] + 49 u[4,0] + 51 u[4,2] + 69 u[4,5]
   + 83 u[4,6] + 43 u[4,7] + 21 u[5,0] + 88 u[5,1] + 9 u[5,2] + 72 u[5,3]
   + 24 u[5,4] + 32 u[5,6] + 82 u[5,7] + 71 u[5,8] + 21 u[6,0] + 94 u[6,1]
   + 85 u[6,2] + 3 u[6,4] + 90 u[6,5] + 41 u[6,7] + u[7,0] + 23 u[7,1]
   + 36 u[7,2] + 98 u[7,4] + 76 u[7,5] + 41 u[7,6] + 48 u[8,0] + 8 u[8,1]
   + 15 u[8,2] + 61 u[8,3] + 50 u[8,5] <= 254
 mccormick1[0,1]: - u[0,1] + r[0,1] <= 0
 mccormick1[0,2]: - u[0,2] + r[0,2] <= 0
 mccormick1[0,3]: - u[0,3] + r[0,3] <= 0
 mccormick1[0,4]: - u[0,4] + r[0,4] <= 0
 mccormick1[0,5]: - u[0,5] + r[0,5] <= 0
 mccormick1[0,6]: - u[0,6] + r[0,6] <= 0
 mccormick1[0,7]: - u[0,7] + r[0,7] <= 0
 mccormick1[0,8]: - u[0,8] + r[0,8] <= 0
 mccormick1[1,0]: - u[1,0] + r[1,0] <= 0
 mccormick1[1,2]: - u[1,2] + r[1,2] <= 0
 mccormick1[1,3]: - u[1,3] + r[1,3] <= 0
 mccormick1[1,5]: - u[1,5] + r[1,5] <= 0
 mccormick1[1,6]: - u[1,6] + r[1,6] <= 0
 mccormick1[1,7]: - u[1,7] + r[1,7] <= 0
 mccormick1[1,8]: - u[1,8] + r[1,8] <= 0
 mccormick1[2,0]: - u[2,0] + r[2,0] <= 0
 mccormick1[2,1]: - u[2,1] + r[2,1] <= 0
 mccormick1[2,3]: - u[2,3] + r[2,3] <= 0
 mccormick1[2,4]: - u[2,4] + r[2,4] <= 0
 mccormick1[2,5]: - u[2,5] + r[2,5] <= 0
 mccormick1[2,6]: - u[2,6] + r[2,6] <= 0
 mccormick1[2,7]: - u[2,7] + r[2,7] <= 0
 mccormick1[2,8]: - u[2,8] + r[2,8] <= 0
 mccormick1[3,0]: - u[3,0] + r[3,0] <= 0
 mccormick1[3,1]: - u[3,1] + r[3,1] <= 0
 mccormick1[3,2]: - u[3,2] + r[3,2] <= 0
 mccormick1[3,5]: - u[3,5] + r[3,5] <= 0
 mccormick1[3,8]: - u[3,8] + r[3,8] <= 0
 mccormick1[4,0]: - u[4,0] + r[4,0] <= 0
 mccormick1[4,2]: - u[4,2] + r[4,2] <= 0
 mccormick1[4,5]: - u[4,5] + r[4,5] <= 0
 mccormick1[4,6]: - u[4,6] + r[4,6] <= 0
 mccormick1[4,7]: - u[4,7] + r[4,7] <= 0
 mccormick1[5,0]: - u[5,0] + r[5,0] <= 0
 mccormick1[5,1]: - u[5,1] + r[5,1] <= 0
 mccormick1[5,2]: - u[5,2] + r[5,2] <= 0
 mccormick1[5,3]: - u[5,3] + r[5,3] <= 0
 mccormick1[5,4]: - u[5,4] + r[5,4] <= 0
 mccormick1[5,6]: - u[5,6] + r[5,6] <= 0
 mccormick1[5,7]: - u[5,7] + r[5,7] <= 0
 mccormick1[5,8]: - u[5,8] + r[5,8] <= 0
 mccormick1[6,0]: - u[6,0] + r[6,0] <= 0
 mccormick1[6,1]: - u[6,1] + r[6,1] <= 0
 mccormick1[6,2]: - u[6,2] + r[6,2] <= 0
 mccormick1[6,4]: - u[6,4] + r[6,4] <= 0
 mccormick1[6,5]: - u[6,5] + r[6,5] <= 0
 mccormick1[6,7]: - u[6,7] + r[6,7] <= 0
 mccormick1[7,0]: - u[7,0] + r[7,0] <= 0
 mccormick1[7,1]: - u[7,1] + r[7,1] <= 0
 mccormick1[7,2]: - u[7,2] + r[7,2] <= 0
 mccormick1[7,4]: - u[7,4] + r[7,4] <= 0
 mccormick1[7,5]: - u[7,5] + r[7,5] <= 0
 mccormick1[7,6]: - u[7,6] + r[7,6] <= 0
 mccormick1[8,0]: - u[8,0] + r[8,0] <= 0
 mccormick1[8,1]: - u[8,1] + r[8,1] <= 0
 mccormick1[8,2]: - u[8,2] + r[8,2] <= 0
 mccormick1[8,3]: - u[8,3] + r[8,3] <= 0
 mccormick1[8,5]: - u[8,5] + r[8,5] <= 0
 mccormick2[0,1]: - y[0,1] + r[0,1] <= 0
 mccormick2[0,2]: - y[0,2] + r[0,2] <= 0
 mccormick2[0,3]: - y[0,3] + r[0,3] <= 0
 mccormick2[0,4]: - y[0,4] + r[0,4] <= 0
 mccormick2[0,5]: - y[0,5] + r[0,5] <= 0
 mccormick2[0,6]: - y[0,6] + r[0,6] <= 0
 mccormick2[0,7]: - y[0,7] + r[0,7] <= 0
 mccormick2[0,8]: - y[0,8] + r[0,8] <= 0
 mccormick2[1,0]: - y[1,0] + r[1,0] <= 0
 mccormick2[1,2]: - y[1,2] + r[1,2] <= 0
 mccormick2[1,3]: - y[1,3] + r[1,3] <= 0
 mccormick2[1,5]: - y[1,5] + r[1,5] <= 0
 mccormick2[1,6]: - y[1,6] + r[1,6] <= 0
 mccormick2[1,7]: - y[1,7] + r[1,7] <= 0
 mccormick2[1,8]: - y[1,8] + r[1,8] <= 0
 mccormick2[2,0]: - y[2,0] + r[2,0] <= 0
 mccormick2[2,1]: - y[2,1] + r[2,1] <= 0
 mccormick2[2,3]: - y[2,3] + r[2,3] <= 0
 mccormick2[2,4]: - y[2,4] + r[2,4] <= 0
 mccormick2[2,5]: - y[2,5] + r[2,5] <= 0
 mccormick2[2,6]: - y[2,6] + r[2,6] <= 0
 mccormick2[2,7]: - y[2,7] + r[2,7] <= 0
 mccormick2[2,8]: - y[2,8] + r[2,8] <= 0
 mccormick2[3,0]: - y[3,0] + r[3,0] <= 0
 mccormick2[3,1]: - y[3,1] + r[3,1] <= 0
 mccormick2[3,2]: - y[3,2] + r[3,2] <= 0
 mccormick2[3,5]: - y[3,5] + r[3,5] <= 0
 mccormick2[3,8]: - y[3,8] + r[3,8] <= 0
 mccormick2[4,0]: - y[4,0] + r[4,0] <= 0
 mccormick2[4,2]: - y[4,2] + r[4,2] <= 0
 mccormick2[4,5]: - y[4,5] + r[4,5] <= 0
 mccormick2[4,6]: - y[4,6] + r[4,6] <= 0
 mccormick2[4,7]: - y[4,7] + r[4,7] <= 0
 mccormick2[5,0]: - y[5,0] + r[5,0] <= 0
 mccormick2[5,1]: - y[5,1] + r[5,1] <= 0
 mccormick2[5,2]: - y[5,2] + r[5,2] <= 0
 mccormick2[5,3]: - y[5,3] + r[5,3] <= 0
 mccormick2[5,4]: - y[5,4] + r[5,4] <= 0
 mccormick2[5,6]: - y[5,6] + r[5,6] <= 0
 mccormick2[5,7]: - y[5,7] + r[5,7] <= 0
 mccormick2[5,8]: - y[5,8] + r[5,8] <= 0
 mccormick2[6,0]: - y[6,0] + r[6,0] <= 0
 mccormick2[6,1]: - y[6,1] + r[6,1] <= 0
 mccormick2[6,2]: - y[6,2] + r[6,2] <= 0
 mccormick2[6,4]: - y[6,4] + r[6,4] <= 0
 mccormick2[6,5]: - y[6,5] + r[6,5] <= 0
 mccormick2[6,7]: - y[6,7] + r[6,7] <= 0
 mccormick2[7,0]: - y[7,0] + r[7,0] <= 0
 mccormick2[7,1]: - y[7,1] + r[7,1] <= 0
 mccormick2[7,2]: - y[7,2] + r[7,2] <= 0
 mccormick2[7,4]: - y[7,4] + r[7,4] <= 0
 mccormick2[7,5]: - y[7,5] + r[7,5] <= 0
 mccormick2[7,6]: - y[7,6] + r[7,6] <= 0
 mccormick2[8,0]: - y[8,0] + r[8,0] <= 0
 mccormick2[8,1]: - y[8,1] + r[8,1] <= 0
 mccormick2[8,2]: - y[8,2] + r[8,2] <= 0
 mccormick2[8,3]: - y[8,3] + r[8,3] <= 0
 mccormick2[8,5]: - y[8,5] + r[8,5] <= 0
 mccormick3[0,1]: - y[0,1] - u[0,1] + r[0,1] >= -1
 mccormick3[0,2]: - y[0,2] - u[0,2] + r[0,2] >= -1
 mccormick3[0,3]: - y[0,3] - u[0,3] + r[0,3] >= -1
 mccormick3[0,4]: - y[0,4] - u[0,4] + r[0,4] >= -1
 mccormick3[0,5]: - y[0,5] - u[0,5] + r[0,5] >= -1
 mccormick3[0,6]: - y[0,6] - u[0,6] + r[0,6] >= -1
 mccormick3[0,7]: - y[0,7] - u[0,7] + r[0,7] >= -1
 mccormick3[0,8]: - y[0,8] - u[0,8] + r[0,8] >= -1
 mccormick3[1,0]: - y[1,0] - u[1,0] + r[1,0] >= -1
 mccormick3[1,2]: - y[1,2] - u[1,2] + r[1,2] >= -1
 mccormick3[1,3]: - y[1,3] - u[1,3] + r[1,3] >= -1
 mccormick3[1,5]: - y[1,5] - u[1,5] + r[1,5] >= -1
 mccormick3[1,6]: - y[1,6] - u[1,6] + r[1,6] >= -1
 mccormick3[1,7]: - y[1,7] - u[1,7] + r[1,7] >= -1
 mccormick3[1,8]: - y[1,8] - u[1,8] + r[1,8] >= -1
 mccormick3[2,0]: - y[2,0] - u[2,0] + r[2,0] >= -1
 mccormick3[2,1]: - y[2,1] - u[2,1] + r[2,1] >= -1
 mccormick3[2,3]: - y[2,3] - u[2,3] + r[2,3] >= -1
 mccormick3[2,4]: - y[2,4] - u[2,4] + r[2,4] >= -1
 mccormick3[2,5]: - y[2,5] - u[2,5] + r[2,5] >= -1
 mccormick3[2,6]: - y[2,6] - u[2,6] + r[2,6] >= -1
 mccormick3[2,7]: - y[2,7] - u[2,7] + r[2,7] >= -1
 mccormick3[2,8]: - y[2,8] - u[2,8] + r[2,8] >= -1
 mccormick3[3,0]: - y[3,0] - u[3,0] + r[3,0] >= -1
 mccormick3[3,1]: - y[3,1] - u[3,1] + r[3,1] >= -1
 mccormick3[3,2]: - y[3,2] - u[3,2] + r[3,2] >= -1
 mccormick3[3,5]: - y[3,5] - u[3,5] + r[3,5] >= -1
 mccormick3[3,8]: - y[3,8] - u[3,8] + r[3,8] >= -1
 mccormick3[4,0]: - y[4,0] - u[4,0] + r[4,0] >= -1
 mccormick3[4,2]: - y[4,2] - u[4,2] + r[4,2] >= -1
 mccormick3[4,5]: - y[4,5] - u[4,5] + r[4,5] >= -1
 mccormick3[4,6]: - y[4,6] - u[4,6] + r[4,6] >= -1
 mccormick3[4,7]: - y[4,7] - u[4,7] + r[4,7] >= -1
 mccormick3[5,0]: - y[5,0] - u[5,0] + r[5,0] >= -1
 mccormick3[5,1]: - y[5,1] - u[5,1] + r[5,1] >= -1
 mccormick3[5,2]: - y[5,2] - u[5,2] + r[5,2] >= -1
 mccormick3[5,3]: - y[5,3] - u[5,3] + r[5,3] >= -1
 mccormick3[5,4]: - y[5,4] - u[5,4] + r[5,4] >= -1
 mccormick3[5,6]: - y[5,6] - u[5,6] + r[5,6] >= -1
 mccormick3[5,7]: - y[5,7] - u[5,7] + r[5,7] >= -1
 mccormick3[5,8]: - y[5,8] - u[5,8] + r[5,8] >= -1
 mccormick3[6,0]: - y[6,0] - u[6,0] + r[6,0] >= -1
 mccormick3[6,1]: - y[6,1] - u[6,1] + r[6,1] >= -1
 mccormick3[6,2]: - y[6,2] - u[6,2] + r[6,2] >= -1
 mccormick3[6,4]: - y[6,4] - u[6,4] + r[6,4] >= -1
 mccormick3[6,5]: - y[6,5] - u[6,5] + r[6,5] >= -1
 mccormick3[6,7]: - y[6,7] - u[6,7] + r[6,7] >= -1
 mccormick3[7,0]: - y[7,0] - u[7,0] + r[7,0] >= -1
 mccormick3[7,1]: - y[7,1] - u[7,1] + r[7,1] >= -1
 mccormick3[7,2]: - y[7,2] - u[7,2] + r[7,2] >= -1
 mccormick3[7,4]: - y[7,4] - u[7,4] + r[7,4] >= -1
 mccormick3[7,5]: - y[7,5] - u[7,5] + r[7,5] >= -1
 mccormick3[7,6]: - y[7,6] - u[7,6] + r[7,6] >= -1
 mccormick3[8,0]: - y[8,0] - u[8,0] + r[8,0] >= -1
 mccormick3[8,1]: - y[8,1] - u[8,1] + r[8,1] >= -1
 mccormick3[8,2]: - y[8,2] - u[8,2] + r[8,2] >= -1
 mccormick3[8,3]: - y[8,3] - u[8,3] + r[8,3] >= -1
 mccormick3[8,5]: - y[8,5] - u[8,5] + r[8,5] >= -1
Bounds
Binaries
 y[0,1] y[0,2] y[0,3] y[0,4] y[0,5] y[0,6] y[0,7] y[0,8] y[1,0] y[1,2]
 y[1,3] y[1,5] y[1,6] y[1,7] y[1,8] y[2,0] y[2,1] y[2,3] y[2,4] y[2,5]
 y[2,6] y[2,7] y[2,8] y[3,0] y[3,1] y[3,2] y[3,5] y[3,8] y[4,0] y[4,2]
 y[4,5] y[4,6] y[4,7] y[5,0] y[5,1] y[5,2] y[5,3] y[5,4] y[5,6] y[5,7]
 y[5,8] y[6,0] y[6,1] y[6,2] y[6,4] y[6,5] y[6,7] y[7,0] y[7,1] y[7,2]
 y[7,4] y[7,5] y[7,6] y[8,0] y[8,1] y[8,2] y[8,3] y[8,5] x[0,1] x[0,2]
 x[0,3] x[0,4] x[0,5] x[0,6] x[0,7] x[0,8] x[1,0] x[1,2] x[1,3] x[1,5]
 x[1,6] x[1,7] x[1,8] x[2,0] x[2,1] x[2,3] x[2,4] x[2,5] x[2,6] x[2,7]
 x[2,8] x[3,0] x[3,1] x[3,2] x[3,5] x[3,8] x[4,0] x[4,2] x[4,5] x[4,6]
 x[4,7] x[5,0] x[5,1] x[5,2] x[5,3] x[5,4] x[5,6] x[5,7] x[5,8] x[6,0]
 x[6,1] x[6,2] x[6,4] x[6,5] x[6,7] x[7,0] x[7,1] x[7,2] x[7,4] x[7,5]
 x[7,6] x[8,0] x[8,1] x[8,2] x[8,3] x[8,5] u[0,1] u[0,2] u[0,3] u[0,4]
 u[0,5] u[0,6] u[0,7] u[0,8] u[1,0] u[1,2] u[1,3] u[1,5] u[1,6] u[1,7]
 u[1,8] u[2,0] u[2,1] u[2,3] u[2,4] u[2,5] u[2,6] u[2,7] u[2,8] u[3,0]
 u[3,1] u[3,2] u[3,5] u[3,8] u[4,0] u[4,2] u[4,5] u[4,6] u[4,7] u[5,0]
 u[5,1] u[5,2] u[5,3] u[5,4] u[5,6] u[5,7] u[5,8] u[6,0] u[6,1] u[6,2]
 u[6,4] u[6,5] u[6,7] u[7,0] u[7,1] u[7,2] u[7,4] u[7,5] u[7,6] u[8,0]
 u[8,1] u[8,2] u[8,3] u[8,5] r[0,1] r[0,2] r[0,3] r[0,4] r[0,5] r[0,6]
 r[0,7] r[0,8] r[1,0] r[1,2] r[1,3] r[1,5] r[1,6] r[1,7] r[1,8] r[2,0]
 r[2,1] r[2,3] r[2,4] r[2,5] r[2,6] r[2,7] r[2,8] r[3,0] r[3,1] r[3,2]
 r[3,5] r[3,8] r[4,0] r[4,2] r[4,5] r[4,6] r[4,7] r[5,0] r[5,1] r[5,2]
 r[5,3] r[5,4] r[5,6] r[5,7] r[5,8] r[6,0] r[6,1] r[6,2] r[6,4] r[6,5]
 r[6,7] r[7,0] r[7,1] r[7,2] r[7,4] r[7,5] r[7,6] r[8,0] r[8,1] r[8,2]
 r[8,3] r[8,5]
End
