instances/shortest_path/discrete_knapsack_uncertainty/nohadani_9_14.kp
61245
254

[0.15364675898076322 3.8637607671055716 0.5506195457650837 3.443368204976302 2.9727177887896077 3.0255906867864852 1.624435216669509 2.7099405499959293 4.325372587303781 4.011420224793169 1.9788413844945836 3.106227411195092 3.7524686290645373 0.05040226526280391 1.0112421872912158 4.186428822877267 0.5146536938634562 2.178052201527986 4.249442888686308 4.162705429183342 2.186802050644385 2.896451365983374 2.2550977756256523 0.7397250813562972 4.2868379782891175 2.8865784927293294 3.4522412000183893 4.028468687093187 1.806230064973208 1.7640232654727026 1.3940736486664849 2.687333417425604 4.188972242924273 1.9698585896029102 1.0119422929203534 1.3311788214371085 4.059708912034243 2.1924558441366755 1.0052198598484472 3.324430894119137 4.331454387763816 0.46501168174403507 2.174322165124421 1.2936049927988558 1.5457331196151856 4.172989030573985 3.086776573126276 3.2714689173135882 2.119894207814888 0.5758676643175186 3.8630871627449674 0.6601897317811466 4.230898963778509 1.7041880533147555 3.954466524383509 3.7221107515425493 3.4141808892874126 1.7678870271007388]

[95 84 90 63 4 81 33 47 57 62 71 15 16 96 68 4 53 88 21 46 1 3 16 26 84 16 62 15 49 51 69 83 43 21 88 9 72 24 32 82 71 21 94 85 3 90 41 1 23 36 98 76 41 48 8 15 61 50]
